DIMENSION : 32
CAPACITY : 10
VEHICLES: 5
NODE_COORD_SECTION 
1 0 0
2 2 5
3 3 6
4 9 3
5 1 5
6 4 2
7 6 8
8 10 3
9 0 6
10 5 7
11 12 2
12 9 8
13 7 3
DEMAND_SECTION
1 0 
2 4 
3 2 
4 6 
5 2 
6 5 
7 1 
8 3 
9 2 
10 2 
11 2 
12 2 
13 2
EOF